* ENCODING=ISO-8859-1
NAME          CPLEX
ROWS
 N  obj1    
 G  c1      
 G  c2      
 G  c3      
 G  c4      
 G  c5      
 G  c6      
 G  c7      
 G  c8      
 G  c9      
 G  c10     
 G  c11     
 G  c12     
 G  c13     
 G  c14     
 G  c15     
 G  c16     
 G  c17     
 G  c18     
 G  c19     
 G  c20     
 G  c21     
 G  c22     
 G  c23     
 G  c24     
 G  c25     
 G  c26     
 G  c27     
 G  c28     
 G  c29     
 G  c30     
 G  c31     
 G  c32     
 G  c33     
 G  c34     
 G  c35     
 G  c36     
 G  c37     
 G  c38     
 G  c39     
 G  c40     
 G  c41     
 G  c42     
 G  c43     
 G  c44     
 G  c45     
 G  c46     
 G  c47     
 G  c48     
 G  c49     
 G  c50     
COLUMNS
    MARK0000  'MARKER'                 'INTORG'
    x1        obj1                            1
    x1        c13                           803
    x1        c29                           688
    x1        c34                           114
    x1        c46                           126
    x2        obj1                            1
    x2        c7                            181
    x2        c20                           263
    x2        c30                           124
    x2        c41                           975
    x2        c43                           422
    x3        obj1                            1
    x3        c1                            648
    x3        c16                           246
    x3        c17                           431
    x3        c31                           156
    x4        obj1                            1
    x4        c4                            376
    x4        c7                            835
    x4        c17                           274
    x4        c26                           220
    x4        c29                           816
    x4        c30                           939
    x5        obj1                            1
    x5        c19                           238
    x5        c23                           543
    x5        c35                           610
    x5        c46                           937
    x5        c49                           874
    x6        obj1                            1
    x6        c6                            659
    x6        c40                           939
    x7        obj1                            1
    x7        c2                            282
    x7        c13                           733
    x7        c21                           544
    x7        c28                           670
    x7        c31                           776
    x7        c50                           789
    x8        obj1                            1
    x8        c1                            760
    x8        c2                            145
    x8        c19                           744
    x8        c26                           349
    x8        c42                           390
    x9        obj1                            1
    x9        c11                           924
    x9        c34                           897
    x9        c36                           639
    x9        c40                           849
    x9        c47                           978
    x10       obj1                            1
    x10       c4                            367
    x10       c15                           999
    x10       c31                           289
    x10       c33                           422
    x10       c41                           453
    x11       obj1                            1
    x11       c17                           156
    x12       obj1                            1
    x12       c18                           484
    x12       c29                           169
    x12       c43                           180
    x12       c45                           965
    x13       obj1                            1
    x13       c3                            205
    x13       c5                            368
    x13       c40                           648
    x14       obj1                            1
    x14       c1                            710
    x14       c3                            329
    x14       c19                           828
    x14       c22                           591
    x15       obj1                            1
    x15       c11                           875
    x15       c22                           550
    x15       c29                           442
    x15       c43                           535
    x15       c50                           553
    x16       obj1                            1
    x16       c10                           988
    x16       c13                           120
    x16       c50                           621
    x17       obj1                            1
    x17       c9                            804
    x17       c14                           342
    x17       c41                           596
    x18       obj1                            1
    x18       c9                            197
    x18       c18                           382
    x18       c37                           961
    x18       c38                           890
    x18       c39                           760
    x18       c50                           801
    x19       obj1                            1
    x19       c10                           733
    x19       c17                           627
    x19       c23                           945
    x19       c25                           366
    x19       c27                           797
    x19       c39                           207
    x19       c42                           678
    x19       c48                           635
    x20       obj1                            1
    x20       c8                            246
    x20       c16                           617
    x20       c38                           194
    x20       c47                           145
    x20       c50                           517
    x21       obj1                            1
    x21       c1                            488
    x21       c6                            978
    x21       c7                            765
    x21       c13                           536
    x21       c22                           555
    x22       obj1                            1
    x22       c21                           909
    x22       c30                           933
    x22       c34                           892
    x22       c37                           101
    x22       c38                           767
    x23       obj1                            1
    x23       c2                            417
    x23       c15                           174
    x23       c18                           929
    x23       c33                           727
    x24       obj1                            1
    x24       c9                            204
    x24       c25                           681
    x24       c26                           894
    x24       c42                           178
    x24       c47                           759
    x25       obj1                            1
    x25       c15                           124
    x25       c29                           491
    x25       c42                           257
    x25       c44                           938
    x25       c46                           708
    x26       obj1                            1
    x26       c1                            629
    x26       c2                            958
    x26       c7                            319
    x26       c9                            309
    x26       c12                           584
    x26       c16                           326
    x26       c25                           546
    x26       c49                           555
    x27       obj1                            1
    x27       c4                            798
    x27       c39                           348
    x27       c43                           844
    x27       c49                           270
    x28       obj1                            1
    x28       c3                            465
    x28       c5                            651
    x28       c27                           416
    x28       c41                           567
    x28       c44                           471
    x29       obj1                            1
    x29       c14                           339
    x29       c23                           225
    x29       c26                           299
    x29       c27                           544
    x29       c35                           420
    x29       c39                           542
    x29       c48                           302
    x30       obj1                            1
    x30       c11                           586
    x30       c32                           769
    x30       c41                           766
    x30       c42                           853
    x31       obj1                            1
    x31       c8                            613
    x31       c12                           664
    x31       c24                           656
    x31       c34                           131
    x31       c39                           887
    x31       c43                           939
    x31       c45                           165
    x31       c48                           960
    x31       c50                           481
    x32       obj1                            1
    x32       c9                            226
    x32       c17                           466
    x32       c27                           771
    x32       c33                           335
    x32       c36                           466
    x33       obj1                            1
    x33       c17                           885
    x33       c24                           630
    x33       c28                           451
    x33       c31                           258
    x33       c47                           177
    x34       obj1                            1
    x34       c1                            829
    x34       c5                            374
    x34       c14                           894
    x34       c18                           744
    x34       c19                           623
    x35       obj1                            1
    x35       c13                           222
    x35       c18                           239
    x35       c21                           296
    x35       c47                           863
    x36       obj1                            1
    x36       c12                           225
    x36       c18                           773
    x36       c29                           804
    x36       c36                           768
    x36       c40                           723
    x36       c42                           781
    x36       c46                           535
    x37       obj1                            1
    x37       c9                            471
    x37       c14                           956
    x37       c17                           371
    x37       c31                           145
    x37       c44                           595
    x38       obj1                            1
    x38       c4                            549
    x38       c5                            495
    x38       c7                            956
    x38       c14                           838
    x38       c30                           897
    x38       c37                           740
    x38       c41                           620
    x39       obj1                            1
    x39       c2                            177
    x39       c15                           361
    x39       c21                           224
    x39       c22                           252
    x39       c27                           462
    x39       c34                           367
    x39       c42                           352
    x40       obj1                            1
    x40       c24                           500
    x40       c25                           590
    x40       c35                           218
    x40       c41                           431
    x40       c47                           826
    x41       obj1                            1
    x41       c3                            944
    x41       c8                            776
    x41       c19                           907
    x41       c40                           101
    x41       c50                           535
    x42       obj1                            1
    x42       c22                           899
    x42       c38                           555
    x42       c46                           917
    x43       obj1                            1
    x43       c10                           889
    x43       c19                           463
    x43       c29                           159
    x43       c30                           665
    x43       c38                           249
    x43       c47                           809
    x44       obj1                            1
    x44       c25                           669
    x44       c32                           221
    x45       obj1                            1
    x45       c6                            299
    x45       c19                           678
    x45       c23                           798
    x45       c31                           863
    x45       c32                           211
    x45       c45                           833
    x46       obj1                            1
    x46       c18                           316
    x46       c22                           735
    x46       c26                           624
    x46       c28                           776
    x46       c32                           787
    x46       c34                           389
    x46       c40                           193
    x47       obj1                            1
    x47       c1                            726
    x47       c7                            752
    x47       c8                            271
    x47       c15                           563
    x47       c20                           340
    x47       c34                           493
    x47       c48                           867
    x48       obj1                            1
    x48       c30                           929
    x48       c32                           408
    x48       c33                           719
    x49       obj1                            1
    x49       c6                            651
    x49       c20                           113
    x49       c38                           202
    x50       obj1                            1
    x50       c24                           799
    x50       c30                           674
    x50       c33                           646
    x50       c38                           994
    x50       c49                           338
    MARK0001  'MARKER'                 'INTEND'
RHS
    rhs       c1                           2395
    rhs       c2                            990
    rhs       c3                            972
    rhs       c4                           1045
    rhs       c5                            944
    rhs       c6                           1294
    rhs       c7                           1904
    rhs       c8                            953
    rhs       c9                           1106
    rhs       c10                          1305
    rhs       c11                          1193
    rhs       c12                           737
    rhs       c13                          1207
    rhs       c14                          1685
    rhs       c15                          1111
    rhs       c16                           595
    rhs       c17                          1605
    rhs       c18                          1934
    rhs       c19                          2241
    rhs       c20                           358
    rhs       c21                           987
    rhs       c22                          1791
    rhs       c23                          1256
    rhs       c24                          1293
    rhs       c25                          1426
    rhs       c26                          1193
    rhs       c27                          1495
    rhs       c28                           949
    rhs       c29                          1785
    rhs       c30                          2581
    rhs       c31                          1244
    rhs       c32                          1198
    rhs       c33                          1425
    rhs       c34                          1642
    rhs       c35                           624
    rhs       c36                           937
    rhs       c37                           901
    rhs       c38                          1926
    rhs       c39                          1372
    rhs       c40                          1727
    rhs       c41                          2204
    rhs       c42                          1745
    rhs       c43                          1460
    rhs       c44                          1002
    rhs       c45                           982
    rhs       c46                          1612
    rhs       c47                          2279
    rhs       c48                          1382
    rhs       c49                          1019
    rhs       c50                          2149
BOUNDS
 LI bnd       x1        0
 LI bnd       x2        0
 LI bnd       x3        0
 LI bnd       x4        0
 LI bnd       x5        0
 LI bnd       x6        0
 LI bnd       x7        0
 LI bnd       x8        0
 LI bnd       x9        0
 LI bnd       x10       0
 LI bnd       x11       0
 LI bnd       x12       0
 LI bnd       x13       0
 LI bnd       x14       0
 LI bnd       x15       0
 LI bnd       x16       0
 LI bnd       x17       0
 LI bnd       x18       0
 LI bnd       x19       0
 LI bnd       x20       0
 LI bnd       x21       0
 LI bnd       x22       0
 LI bnd       x23       0
 LI bnd       x24       0
 LI bnd       x25       0
 LI bnd       x26       0
 LI bnd       x27       0
 LI bnd       x28       0
 LI bnd       x29       0
 LI bnd       x30       0
 LI bnd       x31       0
 LI bnd       x32       0
 LI bnd       x33       0
 LI bnd       x34       0
 LI bnd       x35       0
 LI bnd       x36       0
 LI bnd       x37       0
 LI bnd       x38       0
 LI bnd       x39       0
 LI bnd       x40       0
 LI bnd       x41       0
 LI bnd       x42       0
 LI bnd       x43       0
 LI bnd       x44       0
 LI bnd       x45       0
 LI bnd       x46       0
 LI bnd       x47       0
 LI bnd       x48       0
 LI bnd       x49       0
 LI bnd       x50       0
ENDATA
